26 4
104 89 31 52 60 51 31 58 42 17 100 92 48 66 54 76 55 77 68 41 87 89 83 98 42 22
103 88 32 58 48 58 25 70 33 15 96 75 38 87 42 82 57 73 70 58 66 85 84 99 38 22
102 96 17 78 49 59 33 62 23 41 96 83 37 76 42 83 44 78 75 58 77 78 78 79 33 37
101 89 19 65 65 74 33 52 40 34 110 68 51 85 56 90 35 56 68 51 94 86 90 85 39 10
